NAME: US_CAPITALS
TYPE: TSP
DIMENSION: 15
COMMENT: City names for each node
1 Montgomery, Alabama
2 Juneau, Alaska
3 Phoenix, Arizona
4 Little Rock, Arkansas
5 Sacramento, California
6 Denver, Colorado
7 Hartford, Connecticut
8 Dover, Delaware
9 Tallahassee, Florida
10 Atlanta, Georgia
11 Honolulu, Hawaii
12 Boise, Idaho
13 Springfield, Illinois
14 Indianapolis, Indiana
15 Des Moines, Iowa
NODE_COORD_SECTION
1 32.3792 -86.3077
2 58.3019 -134.4197
3 33.4484 -112.0740
4 34.7465 -92.2896
5 38.5816 -121.4944
6 39.7391 -104.9847
7 41.7658 -72.6734
8 39.1582 -75.5244
9 30.4383 -84.2807
10 33.7490 -84.3880
11 21.3069 -157.8583
12 43.6150 -116.2023
13 39.7983 -89.6544
14 39.7684 -86.1581
15 41.5910 -93.6037
EOF